
******************************************************************************
This program contains Ipopt, a library for large-scale nonlinear optimization.
 Ipopt is released as open source code under the Eclipse Public License (EPL).
         For more information visit http://projects.coin-or.org/Ipopt

This version of Ipopt was compiled from source code available at
    https://github.com/IDAES/Ipopt as part of the Institute for the Design of
    Advanced Energy Systems Process Systems Engineering Framework (IDAES PSE
    Framework) Copyright (c) 2018-2019. See https://github.com/IDAES/idaes-pse.

This version of Ipopt was compiled using HSL, a collection of Fortran codes
    for large-scale scientific computation.  All technical papers, sales and
    publicity material resulting from use of the HSL codes within IPOPT must
    contain the following acknowledgement:
        HSL, a collection of Fortran codes for large-scale scientific
        computation. See http://www.hsl.rl.ac.uk.
******************************************************************************

This is Ipopt version 3.13.2, running with linear solver ma27.

Number of nonzeros in equality constraint Jacobian...:      928
Number of nonzeros in inequality constraint Jacobian.:        0
Number of nonzeros in Lagrangian Hessian.............:      806

Total number of variables............................:      403
                     variables with only lower bounds:      124
                variables with lower and upper bounds:      217
                     variables with only upper bounds:        0
Total number of equality constraints.................:      402
Total number of inequality constraints...............:        0
        inequality constraints with only lower bounds:        0
   inequality constraints with lower and upper bounds:        0
        inequality constraints with only upper bounds:        0

iter    objective    inf_pr   inf_du lg(mu)  ||d||  lg(rg) alpha_du alpha_pr  ls
   0  0.0000000e+00 1.17e+00 1.42e-14  -1.0 0.00e+00    -  0.00e+00 0.00e+00   0
   1  4.8999744e-02 8.58e-01 8.33e+04  -1.0 7.07e+04    -  5.28e-01 2.91e-01h  1
   2  5.0159145e-02 8.51e-01 8.64e+04  -1.0 1.52e+05    -  5.41e-01 7.56e-03h  1
   3  9.0936231e+00 2.42e-01 3.43e+05  -1.0 1.77e+05    -  2.30e-01 9.90e-01h  1
   4  1.1247910e+01 2.73e-02 2.73e+04  -1.0 1.98e+04    -  8.10e-01 9.90e-01h  1
   5  1.1295109e+01 6.35e-04 3.81e+02  -1.0 7.69e+02    -  9.88e-01 9.90e-01h  1
   6  1.1313075e+01 6.66e-06 9.42e+05  -1.0 1.59e+02    -  9.24e-01 9.90e-01h  1
   7  1.1399151e+01 3.59e-05 6.60e+08  -1.0 1.23e+04    -  5.27e-01 6.19e-02f  5
   8  1.1587616e+01 1.77e-05 3.92e+08  -1.0 1.67e+03    -  7.27e-01 9.90e-01H  1
   9  1.1590362e+01 1.77e-05 1.49e+11  -1.0 6.19e+03    -  9.90e-01 3.87e-03h  9
iter    objective    inf_pr   inf_du lg(mu)  ||d||  lg(rg) alpha_du alpha_pr  ls
  10  1.1909001e+01 8.32e-06 4.18e+09  -1.0 2.80e+03    -  9.53e-01 9.90e-01H  1
  11  1.2148661e+01 1.30e-06 1.52e+11  -1.0 2.07e+03    -  1.00e+00 9.90e-01H  1
In iteration 11, 31 Slacks too small, adjusting variable bounds
  12  1.2105571e+01 1.35e-08 1.52e+13  -1.0 3.71e+02    -  1.00e+00 9.90e-01H  1
  13  1.2102963e+01 7.77e-09 1.21e-01  -1.0 2.22e+01    -  1.00e+00 1.00e+00h  1
  14  1.2101370e+01 1.07e-08 1.52e+13  -9.0 1.48e+04    -  9.71e-01 9.19e-04f 10
  15  1.2100576e+01 1.14e-08 1.56e+13  -9.0 1.30e+04    -  9.82e-01 5.22e-04f 11
  16  1.2099781e+01 1.21e-08 1.56e+13  -9.0 1.01e+04    -  9.88e-01 6.68e-04f 11
  17  1.2098988e+01 1.28e-08 1.56e+13  -9.0 8.34e+03    -  1.00e+00 8.11e-04f 11
  18  1.2098889e+01 1.28e-08 1.56e+13  -9.0 7.50e+03    -  1.00e+00 1.13e-04f 14
  19  1.1301726e+01 1.32e-03 5.08e+11  -9.0 7.15e+03    -  1.00e+00 9.67e-01f  1
iter    objective    inf_pr   inf_du lg(mu)  ||d||  lg(rg) alpha_du alpha_pr  ls
  20  1.1295275e+01 1.70e-06 6.19e-02  -9.0 5.57e+01    -  1.00e+00 1.00e+00h  1
  21  1.1295275e+01 6.03e-12 9.89e-08  -9.0 1.52e-03    -  1.00e+00 1.00e+00h  1

Number of Iterations....: 21

                                   (scaled)                 (unscaled)
Objective...............:   1.1295275433761585e+01    1.1295275433761585e+01
Dual infeasibility......:   9.8878566928055601e-08    9.8878566928055601e-08
Constraint violation....:   6.0316196481835505e-12    6.0316196481835505e-12
Complementarity.........:   9.1023754334784112e-10    9.1023754334784112e-10
Overall NLP error.......:   1.0855295899543666e-09    9.8878566928055601e-08


Number of objective function evaluations             = 112
Number of objective gradient evaluations             = 22
Number of equality constraint evaluations            = 112
Number of inequality constraint evaluations          = 0
Number of equality constraint Jacobian evaluations   = 22
Number of inequality constraint Jacobian evaluations = 0
Number of Lagrangian Hessian evaluations             = 21
Total CPU secs in IPOPT (w/o function evaluations)   =      0.054
Total CPU secs in NLP function evaluations           =      1.065

EXIT: Optimal Solution Found.
